JulietBench/Juliet_Based_Patch_Bench/linux/CWE-189-Numeric-Errors/CVE_2007_3642_25845b5155b55cd77e42655ec24161ba3feffa47/Resultdecode_choice_SnippetEQ.smt2
; benchmark generated from python API
(set-info :status unknown)
(declare-fun R () (_ BitVec 32))
(declare-fun rsi () (_ BitVec 64))
(declare-fun rdi () (_ BitVec 64))
(declare-fun rdx () (_ BitVec 64))
(assert
 (let (($x75 (= (_ bv4294967294 32) R)))
 (let ((?x16 ((_ extract 7 0) rsi)))
 (let ((?x77 (concat (_ bv0 24) ?x16)))
 (let ((?x6 ((_ extract 31 0) rdi)))
 (let (($x107 (bvuge ?x6 ?x77)))
 (let (($x73 (and $x107 $x75)))
 (let (($x82 (= (_ bv1 32) R)))
 (let (($x78 (bvult ?x6 ?x77)))
 (let ((?x17 ((_ extract 7 0) rdx)))
 (let ((?x24 (concat (_ bv0 24) ?x17)))
 (let (($x27 (bvult ?x6 ?x24)))
 (let (($x112 (and $x27 $x78 $x82)))
 (let (($x91 (= (_ bv0 32) R)))
 (let (($x68 (bvuge ?x6 ?x24)))
 (let (($x94 (and $x68 $x78 $x91)))
 (let (($x83 (or $x94 $x112 $x73)))
 (let (($x74 (and $x27 $x82)))
 (let (($x113 (and $x68 $x91)))
 (let (($x95 (or $x113 $x74)))
 (and $x95 $x83)))))))))))))))))))))
(check-sat)
